/* Objective function */
max: +NY-DS +NY-LG +NY-LA +NY-KS +NY-LZ +NY-NK +JF-DS +JF-LG +JF-LA +JF-KS +JF-LZ +JF-NK;

/* Constraints */
NY: +NY-DS +NY-LG +NY-LA +NY-KS +NY-LZ +NY-NK <= 500000;
JF: +JF-DS +JF-LG +JF-LA +JF-KS +JF-LZ +JF-NK <= 500000;
DS: -NY-DS -JF-DS +DS-NN +DS-KC +DS-NC >= -50000;
LG: -NY-LG -JF-LG +LG-NN +LG-KC +LG-NC >= -100000;
LA: -NY-LA -JF-LA +LA-NN +LA-KC +LA-NC >= -130000;
KS: -NY-KS -JF-KS +KS-NN +KS-KC +KS-NC >= -90000;
LZ: -NY-LZ -JF-LZ +LZ-NN +LZ-KC +LZ-NC >= -150000;
NK: -NY-NK -JF-NK +NK-NN +NK-KC +NK-NC >= -120000;
NN: -DS-NN -LG-NN -LA-NN -KS-NN -LZ-NN -NK-NN >= -100000;
KC: -DS-KC -LG-KC -LA-KC -KS-KC -LZ-KC -NK-KC >= -180000;
NC: -DS-NC -LG-NC -LA-NC -KS-NC -LZ-NC -NK-NC >= -80000;
U(NY-KS): +NY-KS <= 75000;
U(NY-LZ): +NY-LZ <= 45000;
U(NY-NK): +NY-NK <= 75000;
U(JF-KS): +JF-KS <= 90000;
U(JF-LZ): +JF-LZ <= 75000;
U(JF-NK): +JF-NK <= 105000;
U(DS-KC): +DS-KC <= 12390;
U(DS-NC): +DS-NC <= 7965;
U(LG-KC): +LG-KC <= 5310;
U(LG-NC): +LG-NC <= 2832;
U(LA-KC): +LA-KC <= 4425;
U(LA-NC): +LA-NC <= 4248;
U(KS-NN): +KS-NN <= 45000;
U(KS-KC): +KS-KC <= 12000;
U(KS-NC): +KS-NC <= 6000;
U(LZ-NN): +LZ-NN <= 30000;
U(LZ-KC): +LZ-KC <= 21000;
U(LZ-NC): +LZ-NC <= 0;
U(NK-NN): +NK-NN <= 0;
U(NK-KC): +NK-KC <= 6000;
U(NK-NC): +NK-NC <= 45000;
